     Program PWSCF v.6.2 (svn rev. 13949:13950) starts on 10Apr2018 at 13:46:57

     Waiting for input...
     Reading input from standard input
     Message from routine read_cards :
     DEPRECATED: no units specified in ATOMIC_POSITIONS card
     Message from routine read_cards :
     ATOMIC_POSITIONS: units set to alat

     Current dimensions of program PWSCF are:
     Max number of different atomic species (ntypx) = 10
     Max number of k-points (npk) =  40000
     Max angular momentum in pseudopotentials (lmaxx) =  3

     Subspace diagonalization in iterative solution of the eigenvalue problem:
     a serial algorithm will be used

     Found symmetry operation: I + (  0.0000 -0.5000  0.5000)
     This is a supercell, fractional translations are disabled

     bravais-lattice index     =            1
     lattice parameter (alat)  =      10.1800  a.u.
     unit-cell volume          =    1054.9778 (a.u.)^3
     number of atoms/cell      =            8
     number of atomic types    =            1
     number of electrons       =        32.00
     number of Kohn-Sham states=           16
     kinetic-energy cutoff     =      30.0000  Ry
     charge density cutoff     =     120.0000  Ry
     convergence threshold     =      1.0E-08
     mixing beta               =       0.5000
     number of iterations used =            8  plain     mixing
     Exchange-correlation      =  SLA  PW   PBX  PBC ( 1  4  3  4 0 0)

     Using Berry phase electric field
     In a.u.(Ry)  cartesian system of reference
        0.0000000000
        0.0000000000
        0.0010000000
     In a.u.(Ry)  crystal system of reference
        0.0000000000
        0.0000000000
        0.0010000000
     Number of iterative cycles:   1

     celldm(1)=  10.180000  celldm(2)=   0.000000  celldm(3)=   0.000000
     celldm(4)=   0.000000  celldm(5)=   0.000000  celldm(6)=   0.000000

     crystal axes: (cart. coord. in units of alat)
               a(1) = (   1.000000   0.000000   0.000000 )
               a(2) = (   0.000000   1.000000   0.000000 )
               a(3) = (   0.000000   0.000000   1.000000 )

     reciprocal axes: (cart. coord. in units 2 pi/alat)
               b(1) = (  1.000000  0.000000  0.000000 )
               b(2) = (  0.000000  1.000000  0.000000 )
               b(3) = (  0.000000  0.000000  1.000000 )

     PseudoPot. # 1 for Si read from file:
     ./Si.rel-pbe-rrkj.UPF
     MD5 check sum: 0770b7ac3da7dca739fbe4d27da2739d
     Pseudo is Norm-conserving, Zval =  4.0
     Generated by new atomic code, or converted to UPF format
     Using radial grid of 1141 points,  2 beta functions with:
                l(1) =   0
                l(2) =   1

     atomic species   valence    mass     pseudopotential
        Si             4.00    28.08600     Si( 1.00)

     No symmetry found

   Cartesian axes

     site n.     atom                  positions (alat units)
         1           Si  tau(   1) = (   0.0000000   0.0000000   0.5000000  )
         2           Si  tau(   2) = (   0.7500000   0.7500000   0.7500000  )
         3           Si  tau(   3) = (   0.0000000   0.5000000   0.0000000  )
         4           Si  tau(   4) = (   0.7500000   0.2500000   0.2500000  )
         5           Si  tau(   5) = (   0.5000000   0.0000000   0.0000000  )
         6           Si  tau(   6) = (   0.2500000   0.7500000   0.2500000  )
         7           Si  tau(   7) = (   0.5000000   0.5000000   0.5000000  )
         8           Si  tau(   8) = (   0.2500000   0.2500000   0.7500000  )

     number of k points=   125

     Number of k-points >= 100: set verbosity='high' to print them.

     Initial potential from superposition of free atoms

     starting charge   31.99559, renormalised to   32.00000
     Starting wfc are random

     Self-consistent Calculation

     iteration #  1     ecut=    30.00 Ry     beta= 0.50
     Davidson diagonalization with overlap
     ethr =  1.00E-02,  avg # of iterations =  7.2

     Threshold (ethr) on eigenvalues was too large:
     Diagonalizing with lowered threshold

     Davidson diagonalization with overlap
     ethr =  6.89E-04,  avg # of iterations =  3.3

     Expectation value of exp(iGx):       (0.22974512450603818,-1.63901024821554224E-004)   1.0000000000000000
     Electronic Dipole per cell (Ry a.u.)  -3.2692504688444108E-003
     Ionic Dipole per cell (Ry a.u.)   172.76032877949729

[...]

     Expectation value of exp(iGx):        (0.22834007529232181,3.78297349078760142E-002)   1.0000000000000000
     Electronic Dipole per cell (Ry a.u.)  0.75237977496045660
     Ionic Dipole per cell (Ry a.u.)   172.76032877949731
Electronic Dipole on Cartesian axes
           1  -3.2692504688444108E-003
           2   2.2348610446558646E-002
           3  0.75237977496045660
Ionic Dipole on Cartesian axes
           1   172.76032877949729
           2   172.76032877949729
           3   172.76032877949731

     total energy              =     -63.18274046 Ry
     Harris-Foulkes estimate   =     -63.05658701 Ry
     estimated scf accuracy    <       0.23880115 Ry

[...]

     total energy              =     -63.18376630 Ry
     Harris-Foulkes estimate   =     -63.01010155 Ry
     estimated scf accuracy    <       0.00000028 Ry

     iteration #  7     ecut=    30.00 Ry     beta= 0.50
     Davidson diagonalization with overlap
     ethr =  8.88E-10,  avg # of iterations =  2.0

[...]

     Expectation value of exp(iGx):        (0.21856732515092778,3.83497700647679701E-007)   1.0000000000000000
     Electronic Dipole per cell (Ry a.u.)   8.0406365207288177E-006
     Ionic Dipole per cell (Ry a.u.)   172.76032877949729

     Expectation value of exp(iGx):        (0.21417636245684343,4.28301237388746397E-002)   1.0000000000000000
     Electronic Dipole per cell (Ry a.u.)  0.90448094793212386
     Ionic Dipole per cell (Ry a.u.)   172.76032877949731
Electronic Dipole on Cartesian axes
           1   4.0784918238278024E-006
           2   8.0406365207288177E-006
           3  0.90448094793212386
Ionic Dipole on Cartesian axes
           1   172.76032877949729
           2   172.76032877949729
           3   172.76032877949731

     End of self-consistent calculation

     Number of k-points >= 100: set verbosity='high' to print the bands.

     highest occupied level (ev):     6.4879

!    total energy              =     -63.18376466 Ry
     Harris-Foulkes estimate   =     -63.01009985 Ry
     estimated scf accuracy    <          9.2E-09 Ry

     The total energy is the sum of the following terms:

     one-electron contribution =      19.81967675 Ry
     hartree contribution      =       4.29570899 Ry
     xc contribution           =     -19.39364377 Ry
     ewald contribution        =     -67.73184182 Ry

     convergence has been achieved in   7 iterations

     Writing output data file silicon.save

     General routines

     Parallel routines

     Electric-field routines

   This run was terminated on:  13:49:57  10Apr2018

   JOB DONE.